NAME : pr20.tsp.403034.tour
COMMENT : Length = 403034
COMMENT : Found by LKH [Keld Helsgaun] Tue Jun 13 17:42:21 2017
TYPE : TOUR
DIMENSION : 20
TOUR_SECTION
1
13
17
18
15
7
3
12
19
20
6
4
10
9
16
11
2
5
8
14
-1
EOF
